NAME : n40w40.003.474.tour
COMMENT : Length = 474
COMMENT : Found by LKH [Keld Helsgaun] Tue May  2 05:18:26 2017
TYPE : TOUR
DIMENSION : 41
TOUR_SECTION
1
17
2
18
12
32
31
36
11
10
8
35
39
24
28
25
3
33
5
7
30
6
15
23
26
13
37
20
4
27
21
9
38
22
40
14
34
29
41
19
16
-1
EOF
